proyfinal/src/viki/013/andrea/andrea-localstore/experimentInOfficeAgust.take6/worker_2/a221ab84-6b0b-4a17-958d-b4925c32b0d5.als.cnf.out
Reading from standard input... Use '--help' for help.
============================[ Problem Statistics ]=============================
|                                                                             |
|  Number of variables:         87638                                         |
|  Number of clauses:          161767                                         |
|  Parse time:                   0.04 s                                       |
|                                                                             |
============================[ Search Statistics ]==============================
| Conflicts |          ORIGINAL         |          LEARNT          | Progress |
|           |    Vars  Clauses Literals |    Limit  Clauses Lit/Cl |          |
===============================================================================
|       100 |   62225   104622   261464 |    38361      100     54 | 28.998 % |
|       250 |   62225   104622   261464 |    42197      250     96 | 28.998 % |
|       475 |   62224   104578   261374 |    46417      473     81 | 28.999 % |
|       812 |   62224   104578   261374 |    51059      810     85 | 28.999 % |
|      1318 |   62224   104578   261374 |    56164     1316     89 | 28.999 % |
|      2077 |   62224   104578   261374 |    61781     2075    119 | 28.999 % |
|      3216 |   62224   104578   261374 |    67959     3214    108 | 28.999 % |
===============================================================================
restarts              : 18
conflicts             : 3519           (6537 /sec)
decisions             : 12656          (0.00 % random) (23510 /sec)
propagations          : 5809156        (10791349 /sec)
conflict literals     : 350153         (48.04 % deleted)
Memory used           : 27.14 MB
CPU time              : 0.538316 s

UNSATISFIABLE
